100
100
3000 3000 3000 3000 3000 3000 3000 3000 3000 3000 3000 3000 3000 3000 3000 3000 3000 3000 3000 3000 3000 3000 3000 3000 3000 3000 3000 3000 3000 3000 3000 3000 3000 3000 3000 3000 3000 3000 3000 3000 3000 3000 3000 3000 3000 3000 3000 3000 3000 3000 3000 3000 3000 3000 3000 3000 3000 3000 3000 3000 3000 3000 3000 3000 3000 3000 3000 3000 3000 3000 3000 3000 3000 3000 3000 3000 3000 3000 3000 3000 3000 3000 3000 3000 3000 3000 3000 3000 3000 3000 3000 3000 3000 3000 3000 3000 3000 3000 3000 3000
0 11 3
0 13 0
0 19 1
0 46 0
0 56 0
0 67 1
0 75 3
1 7 4
1 16 0
1 33 2
1 49 2
1 58 2
1 72 1
1 75 2
1 83 1
1 89 3
2 12 1
2 15 0
2 16 0
2 21 0
2 24 0
2 57 1
2 65 2
2 74 2
2 80 2
2 92 2
3 0 1
3 2 0
3 34 3
3 39 1
3 48 4
3 75 3
3 82 1
3 96 3
4 6 2
4 7 2
4 23 0
4 32 1
4 37 0
4 51 1
4 64 3
4 81 1
4 86 4
4 96 3
5 45 0
5 65 0
5 71 4
5 72 2
6 2 4
6 3 4
6 5 1
6 8 3
6 15 2
6 19 1
6 41 3
6 51 2
6 56 2
6 59 4
6 60 4
6 64 4
6 75 4
6 92 2
7 6 2
7 13 1
7 23 3
7 30 0
7 37 0
7 46 2
7 59 0
7 76 2
7 91 1
8 3 1
8 5 1
8 44 0
8 45 0
8 62 0
8 95 3
9 20 2
9 45 2
9 67 1
9 81 3
9 84 3
9 90 1
10 6 1
10 27 3
10 31 2
10 39 4
10 42 1
10 57 1
10 74 3
10 79 4
10 92 1
10 99 3
11 0 4
11 8 4
11 13 2
11 17 1
11 21 4
11 25 3
11 45 0
11 59 2
11 83 4
11 86 0
11 88 0
11 97 3
12 12 4
12 13 3
12 14 3
12 17 4
12 18 0
12 34 3
12 35 1
12 42 4
12 59 1
12 63 2
12 68 1
13 3 1
13 14 2
13 27 2
13 28 4
13 38 3
13 41 2
13 44 3
13 47 1
13 51 3
13 54 3
13 73 2
13 81 1
13 87 3
13 98 2
13 99 4
14 7 0
14 10 0
14 16 0
14 22 0
14 55 2
14 67 2
14 69 0
14 74 0
14 81 1
15 11 2
15 14 2
15 15 4
15 18 0
15 43 4
15 51 2
15 58 1
15 61 0
15 88 0
16 29 1
16 36 0
16 51 2
16 54 0
16 63 1
16 95 1
17 21 4
17 34 4
17 64 1
17 65 0
17 86 1
17 87 2
17 92 1
17 93 4
18 2 1
18 26 4
18 36 4
18 48 1
18 52 1
18 54 0
18 57 1
18 88 3
18 89 1
18 93 4
19 5 0
19 10 4
19 25 0
19 29 4
19 30 0
19 52 3
19 55 1
19 59 1
19 60 2
19 66 0
19 73 4
19 90 4
19 98 1
20 4 4
20 17 0
20 29 4
20 48 0
20 54 4
20 56 4
20 80 3
20 81 2
20 97 0
21 8 2
21 13 0
21 18 4
21 24 0
21 36 0
21 50 3
21 51 3
21 53 1
21 60 0
21 74 1
21 86 0
22 9 4
22 16 1
22 17 0
22 19 1
22 22 0
22 29 2
22 47 3
22 53 1
22 63 1
22 72 4
22 77 4
22 82 4
22 85 3
23 18 1
23 33 3
23 36 0
23 42 1
23 44 3
23 57 4
23 77 2
23 78 0
23 85 3
24 1 4
24 7 3
24 10 2
24 12 4
24 25 0
24 35 4
24 47 2
24 49 3
24 67 2
24 70 4
24 75 1
24 95 4
25 2 1
25 9 1
25 19 4
25 31 4
25 32 1
25 52 1
25 54 4
25 84 1
26 17 4
26 20 2
26 38 4
26 54 3
26 63 0
26 66 1
26 79 1
26 87 1
27 7 0
27 10 1
27 16 1
27 21 0
27 24 2
27 57 4
27 62 3
27 66 0
27 87 3
27 99 3
28 2 0
28 3 3
28 6 0
28 16 1
28 41 0
28 51 1
28 52 1
28 55 0
28 68 0
28 69 1
28 78 4
28 89 2
28 95 0
29 5 3
29 28 0
29 64 1
29 73 2
29 82 1
29 90 0
30 26 4
30 29 2
30 47 1
30 56 4
30 59 3
30 77 4
30 85 0
30 87 4
30 95 4
31 33 2
31 43 2
31 48 1
31 49 3
31 71 0
31 72 4
31 99 4
32 0 4
32 4 0
32 5 3
32 11 2
32 20 4
32 25 3
32 50 2
32 53 3
32 58 1
32 74 2
32 79 2
32 82 2
32 87 0
32 97 3
33 2 0
33 4 4
33 7 0
33 11 4
33 13 3
33 28 4
33 31 2
33 35 3
33 40 4
33 52 3
33 58 3
33 60 0
33 64 2
33 66 4
33 69 4
33 70 1
34 2 0
34 4 3
34 18 3
34 21 3
34 37 3
34 62 2
34 70 3
34 74 1
34 75 2
34 79 4
34 96 2
35 4 1
35 8 3
35 17 3
35 30 4
35 34 3
35 44 3
35 88 4
35 94 0
36 2 2
36 8 1
36 24 0
36 31 2
36 73 2
37 24 0
37 28 1
37 31 4
37 42 0
37 48 1
37 57 0
37 71 3
37 81 0
37 83 1
37 86 2
37 91 0
37 97 3
38 9 3
38 12 3
38 23 4
38 29 1
38 32 2
38 33 1
38 36 0
38 41 1
38 56 1
38 67 2
38 82 1
39 22 1
39 45 2
39 46 0
39 59 2
39 71 2
39 79 0
39 94 0
40 6 2
40 7 0
40 28 3
40 38 3
40 42 1
40 50 4
40 58 2
40 84 3
40 89 0
41 15 0
41 18 1
41 21 0
41 26 0
41 40 2
41 43 3
41 44 2
41 51 3
41 60 1
41 62 3
41 67 0
41 85 1
42 9 0
42 10 3
42 25 4
42 34 4
42 38 1
42 42 3
42 45 3
42 50 3
42 53 0
42 54 4
42 56 0
42 80 2
42 81 3
42 83 0
43 10 4
43 20 3
43 37 0
43 54 1
43 57 4
43 58 4
43 61 2
43 65 4
43 71 0
43 78 1
43 91 3
44 10 1
44 38 4
44 43 0
44 47 4
44 76 1
44 95 4
45 0 0
45 5 0
45 15 1
45 16 1
45 43 1
45 54 0
45 60 1
45 65 3
45 80 4
45 86 0
46 1 4
46 14 4
46 20 4
46 27 2
46 29 4
46 36 2
46 38 4
46 43 4
46 52 4
46 63 2
46 86 0
46 89 4
46 97 3
46 99 1
47 15 0
47 18 3
47 20 2
47 22 3
47 45 1
47 46 2
47 61 3
47 70 2
47 71 2
47 74 2
48 1 4
48 4 4
48 6 2
48 15 0
48 17 0
48 22 3
48 27 2
48 31 3
48 48 1
48 58 0
48 61 3
48 69 0
48 80 1
48 93 3
49 22 1
49 30 3
49 48 4
49 69 4
49 74 4
49 76 2
49 84 0
49 92 4
50 1 2
50 23 3
50 25 1
50 45 4
50 50 4
50 53 2
50 59 3
50 69 3
50 76 4
50 87 3
50 88 3
50 93 4
51 13 4
51 30 0
51 33 2
51 42 1
51 49 1
51 75 3
51 78 4
51 82 3
51 88 1
51 94 1
51 96 2
52 10 4
52 24 3
52 46 4
52 47 3
52 70 0
53 7 0
53 9 4
53 17 1
53 18 1
53 19 2
53 30 2
53 38 0
53 52 2
53 58 1
53 62 1
53 83 2
53 84 4
53 90 2
53 93 0
54 21 0
54 40 3
54 42 1
54 50 4
54 60 3
54 89 4
54 97 3
55 3 3
55 32 4
55 33 4
55 35 4
55 40 3
55 49 4
55 64 4
55 82 1
56 8 2
56 32 0
56 49 3
56 50 3
56 53 0
56 68 0
56 99 4
57 20 0
57 28 3
57 40 0
57 41 3
57 76 1
57 93 1
57 98 3
58 0 3
58 8 3
58 9 1
58 40 2
58 55 2
59 0 0
59 11 3
59 15 1
59 18 3
59 22 2
59 24 1
59 27 1
59 41 4
59 60 2
59 71 4
59 77 1
59 89 1
60 1 1
60 4 1
60 29 4
60 37 0
60 41 4
60 44 2
60 55 1
60 58 3
60 63 2
60 72 0
60 76 3
60 79 0
60 82 3
60 95 2
61 0 0
61 14 3
61 32 4
61 36 4
61 37 3
61 38 2
61 41 3
61 62 4
61 69 0
61 72 1
61 82 2
61 83 3
61 87 4
61 91 3
61 92 0
61 94 0
61 96 3
62 4 4
62 9 1
62 14 2
62 19 1
62 23 2
62 39 0
62 47 0
62 61 2
62 74 4
62 75 2
62 96 0
63 3 0
63 5 4
63 12 0
63 27 2
63 30 0
63 39 3
63 43 3
63 46 3
63 49 2
63 72 2
63 78 4
63 83 4
63 85 0
63 91 4
63 94 0
64 15 1
64 20 4
64 42 3
64 43 0
64 61 3
64 62 1
64 77 0
64 80 2
64 92 3
64 97 2
65 0 3
65 5 1
65 6 2
65 34 2
65 78 3
65 96 3
66 3 2
66 11 4
66 23 3
66 25 2
66 29 2
66 38 2
66 45 3
66 65 2
66 70 0
66 73 3
66 75 2
66 80 0
66 92 2
66 94 1
67 23 3
67 36 3
67 61 4
67 73 1
67 84 3
67 91 1
67 94 3
67 99 2
68 6 4
68 12 3
68 13 4
68 43 2
68 47 1
68 85 2
68 90 0
68 95 1
69 4 3
69 5 4
69 26 3
69 28 3
69 34 2
69 41 0
69 56 1
69 57 1
69 58 4
69 62 4
69 86 4
69 88 2
70 7 0
70 9 1
70 11 4
70 22 0
70 27 3
70 50 1
70 53 0
70 69 3
70 78 0
70 95 4
70 98 0
71 1 3
71 31 0
71 64 1
71 85 3
71 89 0
71 98 0
72 2 3
72 12 4
72 13 3
72 14 2
72 36 4
72 47 4
72 52 3
72 55 4
72 66 3
72 67 2
72 90 2
72 98 1
73 4 2
73 9 2
73 24 0
73 25 3
73 26 4
73 60 1
73 72 2
73 76 2
73 80 1
73 83 0
74 17 4
74 20 4
74 70 4
74 81 1
74 85 3
74 90 3
74 91 4
75 18 0
75 21 4
75 23 1
75 32 2
75 39 2
75 43 2
75 53 4
75 56 4
75 57 2
75 79 4
75 91 2
75 96 3
76 6 4
76 15 4
76 19 3
76 31 3
76 34 4
76 35 2
76 49 2
76 53 2
76 55 0
76 57 3
76 68 0
76 76 1
76 88 4
76 90 3
77 16 0
77 19 4
77 61 3
77 64 3
77 73 3
77 78 3
77 89 4
77 93 0
78 1 0
78 30 0
78 40 0
78 62 1
78 77 2
78 79 3
78 91 2
78 92 4
79 0 0
79 10 3
79 19 0
79 35 3
79 39 0
79 40 1
79 49 1
79 55 0
79 66 3
79 71 1
79 79 0
79 82 0
79 85 3
79 90 1
79 97 3
80 3 2
80 22 4
80 26 0
80 46 1
80 60 4
80 68 4
80 71 4
80 73 0
80 84 4
80 89 2
80 93 3
80 95 2
81 1 0
81 6 4
81 28 3
81 45 2
81 65 2
81 70 0
81 76 1
81 81 0
81 83 1
81 92 0
82 22 0
82 24 2
82 30 4
82 31 4
82 35 2
82 37 0
82 40 3
82 66 3
82 91 1
82 93 4
83 26 2
83 27 1
83 33 2
83 34 1
83 38 1
83 39 4
83 47 0
83 48 4
83 53 4
83 59 2
83 61 4
83 64 3
83 67 1
83 72 1
83 98 3
84 13 0
84 14 4
84 34 0
84 37 1
84 44 3
84 65 0
84 67 0
84 94 0
84 97 2
85 5 3
85 32 2
85 39 3
85 49 3
85 52 3
85 62 3
85 63 4
85 68 3
85 77 2
86 11 1
86 16 2
86 23 1
86 28 0
86 42 0
86 44 4
86 46 3
86 52 0
86 86 2
87 1 1
87 26 0
87 46 1
87 51 0
87 59 3
87 65 0
87 72 1
87 88 0
87 90 2
87 99 2
88 7 0
88 8 4
88 11 1
88 26 3
88 32 2
88 35 2
88 37 1
88 40 4
88 69 4
88 77 0
88 94 1
88 99 3
89 10 4
89 12 4
89 25 1
89 33 2
89 35 3
89 44 4
89 54 2
89 63 1
89 65 3
89 68 3
89 71 3
89 73 3
89 75 2
89 83 0
89 87 2
90 8 0
90 37 3
90 39 2
90 50 3
90 70 2
90 79 4
90 80 4
91 3 2
91 11 2
91 17 4
91 26 1
91 39 0
91 44 4
91 55 1
91 73 4
91 96 1
92 0 4
92 19 4
92 20 1
92 21 1
92 25 2
92 27 4
92 30 1
92 31 0
92 56 2
92 64 1
92 67 3
92 70 1
92 81 1
92 84 4
92 93 3
92 98 4
93 2 3
93 14 4
93 24 3
93 33 3
93 85 0
93 86 0
93 87 1
94 1 1
94 12 2
94 29 3
94 35 4
94 55 0
94 56 3
94 61 3
94 68 0
94 80 4
95 8 2
95 36 3
95 51 1
95 66 3
95 74 2
95 98 1
96 12 4
96 14 2
96 48 4
96 50 1
96 66 0
96 68 4
96 69 4
96 77 1
96 88 0
96 94 3
96 96 3
97 21 2
97 23 4
97 27 1
97 28 4
97 32 0
97 63 2
97 66 1
97 68 0
97 77 1
97 78 3
97 84 1
97 97 2
97 98 3
98 33 0
98 63 0
98 76 4
99 3 1
99 9 2
99 16 1
99 41 1
99 46 2
99 48 0
99 78 0
99 84 4
99 99 4
